50415
34,36,221,246,484,493,546,702,748,770,820,883,913,1020,1028,1078,1204,1275,1358,1430,1479,1595,1652,1793,1804,1809,1894,1897,1989,2024,2029,2222,2412,2685,2719,2947,3012,3159,3435,3474,3495,3553,3864,3868,3882,3924,4018,4115,4123,4135,4206,4271,4484,4515,4577,4612,4787,4893,5119,5175,5224,5343,5364,5370,5439,5598,5967,6051,6081,6096,6209,6401,6550,6554,6562,6588,7117,7150,7364,7569,7667,7752,7979,8139,8160,8321,8326,8354,8699,8807,8984,9081,9094,9153,9154,9252,9272,9527,9603,9632,9757,9779,9817,9878,9893,9987
